c clasp version 2.1.1
c Reading from pb_400_06.cnf
c Solving...
s SATISFIABLE

c Models        : 1+    
c Time          : 60.603s (Solving: 58.00s 1st Model: 57.99s Unsat: 0.00s)
c CPU Time      : 60.500s
c Choices       : 1128703
c Conflicts     : 98208
c Restarts      : 267    (Average: 367.82 Last: 130)

c Variables     : 633632 (Eliminated: 200991 Frozen:    0)
c Constraints   : 835326 (Binary: 62.8% Ternary: 36.5% Other:  0.7%)
c Lemmas        : 98208  (Binary:  0.5% Ternary:  1.0% Other: 98.5%)
c   Conflict    : 98208  (Average Length: 64.0) 
c   Loop        : 0      (Average Length: 0.0) 
c   Other       : 0      (Average Length: 0.0)
c   Deleted     : 66635 
